benchmarks/VRPTW/TSPTW/solution/n20w160.002.txt.solution
1 20 5 19 2 9 13 16 8 11 18 4 6 10 12 7 3 15 21 17 14 
201
